NAME 
ROWS
 N  OBJ
 L  R0      
 E  R1      
 E  R2      
 E  R3      
 E  R4      
 E  R5      
 E  R6      
 E  R7      
 E  R8      
 E  R9      
 E  R10     
 E  R11     
 E  R12     
 E  R13     
 E  R14     
 E  R15     
 E  R16     
 E  R17     
 E  R18     
 E  R19     
 E  R20     
 E  R21     
 E  R22     
 E  R23     
 E  R24     
 E  R25     
 E  R26     
 E  R27     
 E  R28     
 E  R29     
 E  R30     
COLUMNS
    MARKER    'MARKER'                 'INTORG'
    I0(3)     OBJ       119
    I0(3)     R0        29
    I0(3)     R1        -1
    I0(3)     R30       1
    I1(3)     OBJ       2
    I1(3)     R0        -132
    I1(3)     R2        -1
    I1(3)     R30       1
    I2(3)     OBJ       36
    I2(3)     R0        116
    I2(3)     R3        3
    I2(3)     R30       1
    I3(3)     OBJ       40
    I3(3)     R0        -49
    I3(3)     R4        17
    I3(3)     R30       1
    I4(3)     OBJ       -44
    I4(3)     R0        170
    I4(3)     R5        18
    I4(3)     R30       1
    I5(3)     OBJ       -176
    I5(3)     R0        13
    I5(3)     R6        19
    I5(3)     R30       1
    I6(3)     OBJ       -49
    I6(3)     R0        -22
    I6(3)     R7        13
    I6(3)     R30       1
    I7(3)     OBJ       12
    I7(3)     R0        50
    I7(3)     R8        3
    I7(3)     R30       1
    I8(3)     OBJ       135
    I8(3)     R0        -106
    I8(3)     R9        9
    I8(3)     R30       1
    I9(3)     OBJ       -82
    I9(3)     R0        36
    I9(3)     R10       6
    I9(3)     R30       1
    I10(3)    OBJ       -188
    I10(3)    R0        -143
    I10(3)    R11       18
    I10(3)    R30       1
    I11(3)    OBJ       100
    I11(3)    R0        -155
    I11(3)    R12       19
    I11(3)    R30       1
    I12(3)    OBJ       -53
    I12(3)    R0        -40
    I12(3)    R13       6
    I12(3)    R30       1
    I13(3)    OBJ       103
    I13(3)    R0        -125
    I13(3)    R14       19
    I13(3)    R30       1
    I14(3)    OBJ       -173
    I14(3)    R0        -115
    I14(3)    R15       12
    I14(3)    R30       1
    I15(3)    OBJ       -61
    I15(3)    R0        -1
    I15(3)    R16       2
    I15(3)    R30       1
    I16(3)    OBJ       -19
    I16(3)    R0        -174
    I16(3)    R17       16
    I16(3)    R30       1
    I17(3)    OBJ       121
    I17(3)    R0        -158
    I17(3)    R18       6
    I17(3)    R30       1
    I18(3)    OBJ       -63
    I18(3)    R0        -150
    I18(3)    R19       9
    I18(3)    R30       1
    I19(3)    OBJ       64
    I19(3)    R0        3
    I19(3)    R20       -1
    I19(3)    R30       1
    I20(3)    OBJ       57
    I20(3)    R0        -25
    I20(3)    R21       3
    I20(3)    R30       1
    I21(3)    OBJ       -110
    I21(3)    R0        -159
    I21(3)    R22       5
    I21(3)    R30       1
    I22(3)    OBJ       -116
    I22(3)    R0        166
    I22(3)    R23       7
    I22(3)    R30       1
    I23(3)    OBJ       195
    I23(3)    R0        100
    I23(3)    R24       4
    I23(3)    R30       1
    I24(3)    OBJ       141
    I24(3)    R0        71
    I24(3)    R25       3
    I24(3)    R30       1
    I25(3)    OBJ       -136
    I25(3)    R0        -58
    I25(3)    R26       14
    I25(3)    R30       1
    I26(2)    OBJ       66
    I26(2)    R0        -70
    I26(2)    R30       1
    MARKER    'MARKER'                 'INTEND'
    C27(26)   OBJ       4
    C27(26)   R0        1
    C27(26)   R2        19
    C27(26)   R3        6
    C27(26)   R4        13
    C27(26)   R5        3
    C27(26)   R6        14
    C27(26)   R7        1
    C27(26)   R8        19
    C27(26)   R9        6
    C27(26)   R10       1
    C27(26)   R11       5
    C27(26)   R12       7
    C27(26)   R13       -1
    C27(26)   R14       4
    C27(26)   R15       16
    C27(26)   R16       5
    C27(26)   R17       7
    C27(26)   R18       5
    C27(26)   R19       8
    C27(26)   R21       16
    C27(26)   R22       12
    C27(26)   R23       9
    C27(26)   R25       1
    C27(26)   R27       -1
    C27(26)   R28       19
    C27(26)   R29       5
    C28(30)   OBJ       2
    C28(30)   R0        3
    C28(30)   R1        9
    C28(30)   R2        9
    C28(30)   R3        9
    C28(30)   R4        17
    C28(30)   R5        18
    C28(30)   R6        2
    C28(30)   R7        8
    C28(30)   R8        8
    C28(30)   R9        2
    C28(30)   R10       9
    C28(30)   R11       4
    C28(30)   R12       7
    C28(30)   R13       19
    C28(30)   R14       -1
    C28(30)   R15       18
    C28(30)   R16       10
    C28(30)   R17       13
    C28(30)   R18       11
    C28(30)   R19       11
    C28(30)   R20       3
    C28(30)   R21       2
    C28(30)   R22       14
    C28(30)   R23       14
    C28(30)   R24       11
    C28(30)   R25       10
    C28(30)   R26       19
    C28(30)   R27       18
    C28(30)   R28       13
    C28(30)   R29       5
    C29(28)   OBJ       9
    C29(28)   R2        2
    C29(28)   R3        10
    C29(28)   R4        5
    C29(28)   R5        11
    C29(28)   R6        12
    C29(28)   R7        8
    C29(28)   R8        9
    C29(28)   R9        1
    C29(28)   R10       5
    C29(28)   R11       13
    C29(28)   R12       13
    C29(28)   R13       4
    C29(28)   R14       18
    C29(28)   R15       3
    C29(28)   R16       6
    C29(28)   R17       13
    C29(28)   R18       2
    C29(28)   R19       2
    C29(28)   R20       13
    C29(28)   R21       18
    C29(28)   R22       18
    C29(28)   R23       11
    C29(28)   R24       18
    C29(28)   R25       9
    C29(28)   R26       17
    C29(28)   R27       9
    C29(28)   R28       11
    C29(28)   R29       9
    C30(1)    R1        1
    C31(1)    R2        1
    C32(1)    R3        1
    C33(1)    R4        1
    C34(1)    R5        1
    C35(1)    R6        1
    C36(1)    R7        1
    C37(1)    R8        1
    C38(1)    R9        1
    C39(1)    R10       1
    C40(1)    R11       1
    C41(1)    R12       1
    C42(1)    R13       1
    C43(1)    R14       1
    C44(1)    R15       1
    C45(1)    R16       1
    C46(1)    R17       1
    C47(1)    R18       1
    C48(1)    R19       1
    C49(1)    R20       1
    C50(1)    R21       1
    C51(1)    R22       1
    C52(1)    R23       1
    C53(1)    R24       1
    C54(1)    R25       1
    C55(1)    R26       1
    C56(1)    R27       1
    C57(1)    R28       1
    C58(1)    R29       1
    C59(1)    R30       1
RHS
    RHS1      R0        -411
    RHS1      R1        88
    RHS1      R2        99
    RHS1      R3        79
    RHS1      R4        50
    RHS1      R5        58
    RHS1      R6        76
    RHS1      R7        50
    RHS1      R8        67
    RHS1      R9        78
    RHS1      R10       85
    RHS1      R11       76
    RHS1      R12       89
    RHS1      R13       59
    RHS1      R14       79
    RHS1      R15       74
    RHS1      R16       68
    RHS1      R17       97
    RHS1      R18       80
    RHS1      R19       89
    RHS1      R20       75
    RHS1      R21       88
    RHS1      R22       82
    RHS1      R23       97
    RHS1      R24       96
    RHS1      R25       97
    RHS1      R26       65
    RHS1      R27       78
    RHS1      R28       59
    RHS1      R29       66
    RHS1      R30       9
BOUNDS
 UP BND1      I0(3)     1
 UP BND1      I1(3)     1
 UP BND1      I2(3)     1
 UP BND1      I3(3)     1
 UP BND1      I4(3)     1
 UP BND1      I5(3)     1
 UP BND1      I6(3)     1
 UP BND1      I7(3)     1
 UP BND1      I8(3)     1
 UP BND1      I9(3)     1
 UP BND1      I10(3)    1
 UP BND1      I11(3)    1
 UP BND1      I12(3)    1
 UP BND1      I13(3)    1
 UP BND1      I14(3)    1
 UP BND1      I15(3)    1
 UP BND1      I16(3)    1
 UP BND1      I17(3)    1
 UP BND1      I18(3)    1
 UP BND1      I19(3)    1
 UP BND1      I20(3)    1
 UP BND1      I21(3)    1
 UP BND1      I22(3)    1
 UP BND1      I23(3)    1
 UP BND1      I24(3)    1
 UP BND1      I25(3)    1
 UP BND1      I26(2)    1
ENDATA
